#For obtaining rotational constants
!UHF DEF2-SVP
%SCF
	MAXITER 500
	END
*xyz 0 1
He	0.5390456966        0.9788282225       -0.1383245163
He	-1.1024884940        0.0000000000        0.2641072565
He	0.5390456966       -0.9788282225       -0.1383245163
* 


                  
 
