#P HF/STO-3G Opt Freq

Geometry Optimization of the Three He3 system

0 1
He 0.5390456966 0.9788282225 -0.1383245163
He -1.1024884940 0.0000000000 0.2641072565
He 0.5390456966 -0.9788282225 -0.1383245163


 
 
 
 
 
